; benchmark generated from python API
(set-info :status unknown)
(declare-datatypes ((RealState 0)) (((RMk1 (rval1 Real)) (RMk2 (rval2 Real)))))
 (assert
 (forall ((|v17:0| Real) )(forall ((|v16:1| Real) )(forall ((|v15:2| Real) )(forall ((|v14:3| Real) )(forall ((|v13:4| Real) )(forall ((|v12:5| Real) )(exists ((|v11:6_st| RealState) (val!9900 Real) )(exists ((|v10:7_st| RealState) (val!9901 Real) )(exists ((|v9:8_st| RealState) (val!9902 Real) )(exists ((|v8:9_st| RealState) (val!9903 Real) )(exists ((|v7:10_st| RealState) (val!9904 Real) )(exists ((|v6:11_st| RealState) (val!9905 Real) )(forall ((|v5:12| Real) )(forall ((|v4:13| Real) )(forall ((|v3:14| Real) )(forall ((|v2:15| Real) )(forall ((|v1:16| Real) )(forall ((|v0:17| Real) )(let ((?x5853 (* 6.0 |v16:1|)))
 (let ((?x7216 (* 13.0 |v5:12|)))
 (let ((?x6528 (rval2 |v7:10_st|)))
 (let ((?x3398 (- 17.0)))
 (let ((?x4471 (* ?x3398 ?x6528)))
 (let ((?x8076 (- 7.0)))
 (let ((?x1800 (* ?x8076 |v2:15|)))
 (let ((?x8130 (- 6.0)))
 (let ((?x4430 (* ?x8130 |v13:4|)))
 (let ((?x4877 (+ (+ (+ (+ (* (- 19.0) (rval2 |v9:8_st|)) (* 4.0 |v13:4|)) ?x4430) ?x1800) ?x4471)))
 (let ((?x7172 (- 10.0)))
 (let ((?x4378 (* ?x7172 |v14:3|)))
 (let ((?x7054 (rval2 |v8:9_st|)))
 (let ((?x4242 (* 12.0 ?x7054)))
 (let ((?x3061 (* 8.0 |v16:1|)))
 (let ((?x9102 (- 9.0)))
 (let ((?x8672 (* ?x9102 |v16:1|)))
 (let ((?x7099 (+ (+ (+ (+ (* (- 14.0) |v2:15|) (* (- 11.0) |v14:3|)) ?x8672) ?x3061) (* 9.0 (rval2 |v10:7_st|)))))
 (let ((?x2563 (- 15.0)))
 (let ((?x5282 (* 13.0 |v14:3|)))
 (let ((?x6401 (rval2 |v9:8_st|)))
 (let ((?x990 (* 12.0 ?x6401)))
 (let ((?x2014 (rval2 |v6:11_st|)))
 (let ((?x3475 (* 11.0 ?x2014)))
 (let ((?x7453 (+ (+ (+ (+ ?x4242 (* ?x8076 |v4:13|)) (* (- 14.0) ?x7054)) (* 9.0 ?x6528)) ?x3475)))
 (let (($x3094 (and (<= (+ (+ ?x7453 ?x990) ?x5282) ?x2563) (<= (+ (+ ?x7099 ?x4242) ?x4378) 4.0))))
 (let ((?x4810 (* 12.0 |v3:14|)))
 (let ((?x7823 (+ (+ (+ (* 4.0 |v16:1|) (* (- 16.0) |v14:3|)) (* 13.0 |v0:17|)) (* 0.0 ?x6528))))
 (let (($x3861 (<= (+ (+ (+ ?x7823 (* (- 12.0) |v13:4|)) (* 9.0 ?x6401)) ?x4810) 20.0)))
 (let ((?x2933 (* 12.0 |v5:12|)))
 (let ((?x2998 (+ (+ (+ (* (- 2.0) |v14:3|) (* (- 1.0) |v2:15|)) (* 20.0 |v5:12|)) (* (- 11.0) |v15:2|))))
 (let (($x8401 (<= (+ (+ (+ ?x2998 ?x2933) (* (- 16.0) ?x2014)) (* 0.0 (rval2 |v10:7_st|))) 5.0)))
 (let ((?x7108 (- 16.0)))
 (let ((?x2056 (* ?x7108 |v2:15|)))
 (let ((?x7845 (rval2 |v10:7_st|)))
 (let ((?x3657 (* ?x7172 ?x7845)))
 (let ((?x2729 (* 13.0 |v17:0|)))
 (let ((?x3530 (* 17.0 |v1:16|)))
 (let ((?x1031 (+ (+ (+ (* (- 3.0) |v14:3|) (* (- 3.0) |v2:15|)) (* 17.0 ?x6401)) ?x3530)))
 (let ((?x6937 (- 19.0)))
 (let ((?x4144 (* ?x6937 ?x2014)))
 (let ((?x4680 (* ?x7172 |v16:1|)))
 (let ((?x8150 (+ (+ (+ (* 19.0 |v3:14|) (* 18.0 |v12:5|)) (* (- 12.0) |v14:3|)) ?x4144)))
 (let (($x7940 (or (<= (+ (+ (+ ?x8150 ?x4680) ?x4144) |v2:15|) ?x2563) (<= (+ (+ (+ ?x1031 ?x2729) ?x3657) ?x2056) 17.0))))
 (let (($x8824 (and (and $x7940 (or $x8401 $x3861)) (or $x3094 (<= (+ (+ ?x4877 ?x7216) ?x5853) 15.0)))))
 (let ((?x856 (- 5.0)))
 (let ((?x3081 (- 13.0)))
 (let ((?x2028 (* ?x3081 |v3:14|)))
 (let ((?x8304 (* ?x2563 |v4:13|)))
 (let ((?x2035 (* 20.0 |v12:5|)))
 (let ((?x9163 (* 0.0 |v2:15|)))
 (let ((?x8831 (+ (+ (+ (* ?x3398 (rval2 |v11:6_st|)) (* 3.0 ?x2014)) (* (- 4.0) |v15:2|)) ?x9163)))
 (let ((?x4535 (* 16.0 |v3:14|)))
 (let ((?x2364 (- 3.0)))
 (let ((?x1112 (* ?x2364 |v1:16|)))
 (let ((?x6152 (- 11.0)))
 (let ((?x4322 (* ?x6152 |v5:12|)))
 (let ((?x1510 (+ (+ (+ (+ (* (- 1.0) |v5:12|) (* 6.0 ?x6401)) (* ?x3081 |v17:0|)) ?x4322) |v17:0|)))
 (let (($x7362 (or (<= (+ (+ ?x1510 ?x1112) ?x4535) 16.0) (<= (+ (+ (+ ?x8831 ?x2035) ?x8304) ?x2028) ?x856))))
 (let ((?x506 (* 9.0 |v2:15|)))
 (let ((?x3365 (* 8.0 |v2:15|)))
 (let ((?x5750 (- 1.0)))
 (let ((?x4519 (* ?x5750 |v5:12|)))
 (let ((?x8501 (* 11.0 ?x7054)))
 (let ((?x428 (+ (+ (+ (+ (* 11.0 |v1:16|) (* ?x3398 |v5:12|)) (* ?x7172 ?x6528)) ?x8501) ?x4519)))
 (let ((?x1672 (* 8.0 |v5:12|)))
 (let ((?x2367 (- 14.0)))
 (let ((?x5427 (* ?x2367 |v14:3|)))
 (let ((?x1912 (+ (+ (+ (* 12.0 |v14:3|) (* 10.0 (rval2 |v11:6_st|))) (* 20.0 ?x2014)) (* ?x8130 |v17:0|))))
 (let (($x429 (and (<= (+ (+ (+ ?x1912 (* 13.0 (rval2 |v11:6_st|))) ?x5427) ?x1672) 15.0) (<= (+ (+ ?x428 ?x3365) ?x506) 19.0))))
 (let ((?x3317 (* 4.0 |v17:0|)))
 (let ((?x673 (* ?x6152 |v0:17|)))
 (let ((?x489 (* ?x6937 |v4:13|)))
 (let ((?x3804 (+ (+ (+ (+ (* ?x3081 |v12:5|) (* 5.0 ?x6401)) (* ?x8130 |v14:3|)) ?x489) (* ?x6152 |v12:5|))))
 (let ((?x1993 (* ?x8076 |v13:4|)))
 (let ((?x7112 (rval2 |v11:6_st|)))
 (let ((?x1094 (* 15.0 ?x7112)))
 (let ((?x1657 (+ (+ (+ (+ (* ?x6152 ?x7112) (* ?x8130 |v14:3|)) ?x4144) (* (- 20.0) |v15:2|)) (* 3.0 ?x6401))))
 (let (($x4549 (and (<= (+ (+ ?x1657 ?x1094) ?x1993) 9.0) (<= (+ (+ ?x3804 ?x673) ?x3317) 18.0))))
 (let ((?x5759 (* ?x856 ?x7112)))
 (let ((?x7369 (- 20.0)))
 (let ((?x3276 (* ?x7369 |v5:12|)))
 (let ((?x2579 (- 12.0)))
 (let ((?x8764 (* ?x2579 |v2:15|)))
 (let ((?x3310 (* ?x7108 ?x7054)))
 (let ((?x1507 (+ (+ (+ (+ (* 9.0 ?x7112) (* 0.0 |v5:12|)) (* 18.0 |v12:5|)) ?x3310) ?x8764)))
 (let ((?x2288 (* ?x2364 |v5:12|)))
 (let ((?x5351 (* ?x2579 ?x6401)))
 (let ((?x8390 (* ?x856 ?x6401)))
 (let ((?x8846 (- 18.0)))
 (let ((?x2257 (* ?x8846 |v5:12|)))
 (let ((?x7927 (+ (+ (+ (+ (* 11.0 |v15:2|) (* ?x856 ?x6528)) (* 9.0 |v4:13|)) ?x2257) ?x8390)))
 (let (($x3346 (and (<= (+ (+ ?x7927 ?x5351) ?x2288) 9.0) (<= (+ (+ ?x1507 ?x3276) ?x5759) ?x2364))))
 (let ((?x5228 (* ?x2364 |v2:15|)))
 (let ((?x7979 (* ?x8846 |v13:4|)))
 (let ((?x1200 (* ?x8076 ?x7112)))
 (let ((?x4954 (+ (+ (+ (+ (* ?x7172 ?x2014) (* ?x8846 |v3:14|)) (* ?x2579 |v4:13|)) ?x1200) ?x7979)))
 (let ((?x4001 (* 10.0 |v0:17|)))
 (let ((?x2443 (* 13.0 ?x6401)))
 (let ((?x6755 (* 9.0 |v15:2|)))
 (let ((?x7673 (* 10.0 |v4:13|)))
 (let ((?x4321 (+ (+ (+ (+ (* ?x7108 |v16:1|) (* 19.0 |v12:5|)) (* 11.0 ?x7845)) ?x7673) ?x6755)))
 (let (($x4168 (or (<= (+ (+ ?x4321 ?x2443) ?x4001) ?x8076) (<= (+ (+ ?x4954 ?x5228) ?x990) 11.0))))
 (let ((?x4934 (- 4.0)))
 (let ((?x1952 (* ?x4934 |v0:17|)))
 (let ((?x9421 (* ?x7172 |v13:4|)))
 (let ((?x7063 (+ (+ (+ (+ (* ?x8076 ?x6528) (* 17.0 ?x6401)) ?x3310) (* 14.0 ?x7112)) ?x9421)))
 (let ((?x2433 (* 15.0 |v14:3|)))
 (let ((?x6801 (* ?x8846 ?x6401)))
 (let ((?x5405 (+ (+ (+ (+ (* 20.0 ?x7112) (* 3.0 ?x7112)) ?x5351) (* ?x5750 |v4:13|)) ?x6801)))
 (let (($x6730 (and (<= (+ (+ ?x5405 (* ?x2364 ?x6528)) ?x2433) ?x4934) (<= (+ (+ ?x7063 ?x1952) ?x6755) 2.0))))
 (let ((?x1560 (* 10.0 |v17:0|)))
 (let ((?x2622 (* ?x2367 |v13:4|)))
 (let ((?x9108 (* ?x7172 |v3:14|)))
 (let ((?x5461 (+ (+ (+ (+ (+ (* 9.0 |v14:3|) |v5:12|) (* 13.0 ?x7054)) ?x2622) ?x9108) ?x2622)))
 (let ((?x800 (* ?x8076 |v4:13|)))
 (let ((?x6693 (* ?x2367 |v3:14|)))
 (let ((?x1770 (* 7.0 ?x7054)))
 (let ((?x8403 (* 5.0 |v2:15|)))
 (let ((?x117 (+ (+ (+ (+ (* 8.0 |v12:5|) (* 20.0 |v0:17|)) (* 2.0 |v2:15|)) ?x8403) ?x1770)))
 (let ((?x2478 (* 14.0 ?x7845)))
 (let ((?x2264 (* ?x7172 |v0:17|)))
 (let ((?x2672 (* ?x6152 |v13:4|)))
 (let ((?x4087 (+ (+ (+ (+ (* ?x3398 ?x7845) (* ?x6937 |v16:1|)) (* 18.0 |v12:5|)) ?x2672) ?x2264)))
 (let ((?x5325 (* ?x2364 |v4:13|)))
 (let ((?x4013 (* ?x6152 |v16:1|)))
 (let ((?x1648 (* 0.0 |v15:2|)))
 (let ((?x4052 (+ (+ (+ (+ (* ?x2367 |v1:16|) (* ?x5750 ?x7112)) (* ?x9102 |v15:2|)) ?x1648) (* ?x3081 ?x7054))))
 (let (($x876 (and (<= (+ (+ ?x4052 ?x4013) ?x5325) 12.0) (<= (+ (+ ?x4087 ?x3365) ?x2478) ?x2579))))
 (let (($x3711 (and $x876 (or (<= (+ (+ ?x117 ?x6693) ?x800) ?x6937) (<= (+ ?x5461 ?x1560) 4.0)))))
 (let ((?x9413 (* ?x8130 |v15:2|)))
 (let ((?x5487 (* ?x8076 ?x7845)))
 (let ((?x3802 (+ (+ (+ (+ (* 9.0 |v5:12|) ?x1993) (* ?x7108 |v1:16|)) (* 17.0 |v0:17|)) ?x5325)))
 (let ((?x5772 (* ?x2579 ?x2014)))
 (let ((?x2944 (* 15.0 |v2:15|)))
 (let ((?x8861 (+ (+ (+ (+ (+ (* ?x3398 |v15:2|) ?x489) (* 4.0 |v13:4|)) ?x1112) ?x6755) ?x2944)))
 (let ((?x8747 (* 9.0 |v3:14|)))
 (let ((?x3911 (* ?x3398 |v2:15|)))
 (let ((?x6828 (- 8.0)))
 (let ((?x5583 (* ?x6828 ?x7845)))
 (let ((?x4084 (+ (+ (+ (+ (* 5.0 |v12:5|) (* ?x9102 |v4:13|)) (* 4.0 |v2:15|)) ?x5583) ?x3911)))
 (let ((?x1786 (* 4.0 ?x7845)))
 (let ((?x2841 (* ?x5750 |v2:15|)))
 (let ((?x7422 (* ?x3398 |v14:3|)))
 (let ((?x3755 (+ (+ (+ (* 5.0 |v17:0|) ?x800) (* (- 2.0) |v12:5|)) (* 7.0 |v14:3|))))
 (let (($x739 (or (<= (+ (+ (+ ?x3755 ?x7422) ?x2841) ?x1786) ?x7172) (<= (+ (+ ?x4084 ?x8747) (* ?x3081 |v14:3|)) 16.0))))
 (let (($x7049 (and $x739 (and (<= (+ ?x8861 ?x5772) 17.0) (<= (+ (+ ?x3802 ?x5487) ?x9413) 8.0)))))
 (let ((?x2124 (* 17.0 |v4:13|)))
 (let ((?x86 (+ (+ (+ (* ?x7108 |v12:5|) (* 3.0 ?x6528)) (* 5.0 |v4:13|)) (* 15.0 ?x6401))))
 (let ((?x3582 (* 4.0 |v16:1|)))
 (let ((?x9147 (* 19.0 ?x7845)))
 (let ((?x1619 (* ?x3081 |v15:2|)))
 (let ((?x6040 (* ?x4934 ?x6401)))
 (let ((?x1126 (+ (+ (+ (+ (* ?x2579 |v16:1|) (* 18.0 |v14:3|)) (* 16.0 |v16:1|)) ?x6040) ?x1619)))
 (let (($x6413 (or (<= (+ (+ ?x1126 ?x9147) ?x3582) 12.0) (<= (+ (+ (+ ?x86 (* 0.0 |v13:4|)) ?x2124) (* 12.0 |v17:0|)) 15.0))))
 (let ((?x3774 (+ (+ (+ (+ ?x3317 (* ?x2364 ?x7845)) (* ?x2563 |v1:16|)) (* 4.0 |v3:14|)) (* 0.0 ?x7112))))
 (let ((?x61 (* ?x2364 |v14:3|)))
 (let ((?x2253 (* 3.0 ?x7054)))
 (let ((?x8009 (+ (+ (+ (+ (* ?x7108 |v16:1|) (* ?x9102 ?x2014)) (* 2.0 |v1:16|)) ?x2672) (* ?x5750 ?x6528))))
 (let (($x5411 (and (<= (+ (+ ?x8009 ?x2253) ?x61) 1.0) (<= (+ (+ ?x3774 (* ?x2563 ?x7845)) ?x2056) 14.0))))
 (let (($x4644 (and (or (or (and $x5411 $x6413) $x7049) (or $x3711 (or $x6730 $x4168))) (or (and (and $x3346 $x4549) (and $x429 $x7362)) $x8824))))
 (let ((?x5341 (* 18.0 ?x7845)))
 (let ((?x6712 (* 0.0 |v0:17|)))
 (let ((?x1948 (* 0.0 |v4:13|)))
 (let ((?x3943 (* 8.0 ?x2014)))
 (let ((?x7739 (+ (+ (+ (+ (* ?x6937 |v2:15|) (* 12.0 |v14:3|)) (* ?x6937 |v1:16|)) ?x3943) ?x1948)))
 (let ((?x4354 (* ?x2563 |v16:1|)))
 (let ((?x6690 (* 2.0 ?x6528)))
 (let ((?x8910 (* 13.0 |v12:5|)))
 (let ((?x5415 (* ?x8130 ?x7054)))
 (let ((?x7550 (* ?x2579 |v0:17|)))
 (let ((?x263 (+ (+ (* 2.0 |v4:13|) (* ?x6828 |v0:17|)) ?x7550)))
 (let (($x7147 (and (<= (+ (+ (+ (+ ?x263 ?x5415) ?x8910) ?x6690) ?x4354) ?x8130) (<= (+ (+ ?x7739 ?x6712) ?x5341) 12.0))))
 (let ((?x7954 (* 5.0 |v17:0|)))
 (let ((?x7383 (+ (+ (+ (+ ?x8764 ?x3317) (* ?x6152 ?x6528)) (* ?x5750 ?x7054)) (* 16.0 ?x7112))))
 (let ((?x7342 (* ?x8846 ?x6528)))
 (let ((?x6196 (* ?x4934 |v16:1|)))
 (let ((?x3905 (* 6.0 |v12:5|)))
 (let ((?x7734 (+ (+ (+ (+ (* 13.0 |v3:14|) (* ?x7172 |v5:12|)) (* 6.0 ?x7054)) ?x3905) ?x6196)))
 (let (($x7364 (or (<= (+ (+ ?x7734 ?x7342) (* (- 2.0) ?x2014)) 9.0) (<= (+ (+ ?x7383 ?x7954) (* ?x5750 |v16:1|)) ?x6152))))
 (let ((?x936 (* ?x6828 ?x6401)))
 (let ((?x3742 (* 18.0 ?x7112)))
 (let ((?x1608 (+ (+ (+ (+ (* ?x6937 ?x7845) (* 5.0 |v1:16|)) ?x3475) (* 18.0 |v14:3|)) ?x3742)))
 (let ((?x3155 (* ?x8846 |v4:13|)))
 (let ((?x3668 (* ?x2579 ?x7112)))
 (let ((?x1563 (* 19.0 |v1:16|)))
 (let ((?x9080 (+ (+ (+ (+ (* 16.0 |v14:3|) (* 3.0 |v2:15|)) (* 6.0 |v5:12|)) ?x1563) ?x3668)))
 (let (($x6219 (or (<= (+ (+ ?x9080 ?x3155) ?x1770) ?x3081) (<= (+ (+ ?x1608 (* ?x3081 ?x6528)) ?x936) 16.0))))
 (let ((?x8176 (* ?x8076 |v3:14|)))
 (let ((?x2357 (* ?x7172 |v2:15|)))
 (let ((?x5793 (+ (+ (+ (+ ?x3742 (* ?x7369 |v1:16|)) (* 5.0 |v14:3|)) |v15:2|) (* ?x3398 ?x2014))))
 (let ((?x8577 (* ?x2579 |v14:3|)))
 (let ((?x7490 (* ?x7369 |v1:16|)))
 (let ((?x4536 (+ (+ (+ (+ (* 10.0 ?x2014) (* ?x2579 ?x6528)) ?x9108) ?x4430) (* 17.0 |v15:2|))))
 (let (($x3901 (and (<= (+ (+ ?x4536 ?x7490) ?x8577) ?x2364) (<= (+ (+ ?x5793 ?x2357) ?x8176) 10.0))))
 (let ((?x9269 (* ?x3398 ?x7845)))
 (let ((?x6392 (* 11.0 |v16:1|)))
 (let ((?x2876 (+ (+ (+ (* ?x2367 ?x6528) (* ?x4934 |v14:3|)) (* ?x6937 |v12:5|)) (* 16.0 |v15:2|))))
 (let ((?x455 (* 4.0 ?x6401)))
 (let ((?x2370 (+ (+ (+ (+ ?x3317 (* 14.0 |v1:16|)) (* ?x2579 |v12:5|)) |v14:3|) (* ?x6828 ?x7054))))
 (let (($x5464 (or (<= (+ (+ ?x2370 ?x455) (* ?x3081 ?x7112)) 0.0) (<= (+ (+ (+ ?x2876 ?x6392) ?x9269) (* ?x2367 ?x7845)) 13.0))))
 (let ((?x71 (* 10.0 |v5:12|)))
 (let ((?x4627 (* ?x6828 |v5:12|)))
 (let ((?x5067 (+ (+ (+ (+ (* ?x5750 |v3:14|) (* (- 2.0) ?x6528)) (* ?x7108 |v0:17|)) ?x4627) ?x2622)))
 (let ((?x2892 (* 5.0 |v16:1|)))
 (let ((?x9342 (* 8.0 ?x6528)))
 (let ((?x3099 (+ (+ (+ (+ (+ (* 5.0 ?x7112) (* 0.0 |v17:0|)) ?x2357) |v0:17|) ?x9342) (* ?x4934 |v12:5|))))
 (let (($x9234 (and (and (<= (+ ?x3099 ?x2892) 17.0) (<= (+ (+ ?x5067 ?x5351) ?x71) 16.0)) $x5464)))
 (let ((?x7284 (* ?x3081 |v2:15|)))
 (let ((?x9159 (+ (+ (+ (+ (* ?x856 |v12:5|) (* 20.0 ?x7112)) (* ?x5750 |v17:0|)) ?x4354) ?x7284)))
 (let ((?x4330 (* 9.0 |v4:13|)))
 (let ((?x7588 (* 13.0 ?x7845)))
 (let ((?x8385 (+ (+ (+ (* ?x7369 ?x6528) (* ?x8076 |v12:5|)) (* 7.0 |v13:4|)) (* 19.0 |v13:4|))))
 (let (($x4195 (or (<= (+ (+ (+ ?x8385 ?x7588) ?x4330) ?x506) 8.0) (<= (+ (+ ?x9159 ?x4013) ?x7054) ?x3081))))
 (let ((?x6015 (- 2.0)))
 (let ((?x5742 (* 20.0 ?x7845)))
 (let ((?x3979 (+ (+ (+ (+ (+ ?x3905 ?x800) (* ?x7172 |v1:16|)) ?x1648) (* 7.0 ?x2014)) (* ?x8846 |v12:5|))))
 (let ((?x7799 (+ (+ (+ (+ (* ?x3398 |v16:1|) (* 11.0 ?x6401)) (* 2.0 |v4:13|)) ?x3582) ?x4471)))
 (let (($x4325 (and (or (<= (+ (+ ?x7799 ?x4680) ?x4430) ?x6015) (<= (+ ?x3979 ?x5742) ?x6015)) $x4195)))
 (let ((?x9439 (* 7.0 ?x6528)))
 (let ((?x5578 (* 10.0 |v12:5|)))
 (let ((?x1964 (* 16.0 |v12:5|)))
 (let ((?x1281 (+ (+ (+ (+ (* ?x2367 ?x7112) (* 20.0 |v2:15|)) (* 15.0 |v5:12|)) ?x1964) ?x5578)))
 (let ((?x2880 (* ?x6937 |v3:14|)))
 (let ((?x7062 (* ?x6152 |v14:3|)))
 (let ((?x8473 (* ?x3398 |v0:17|)))
 (let ((?x1975 (+ (+ (+ (+ (* 20.0 |v1:16|) ?x2880) (* 3.0 |v17:0|)) (* 7.0 |v15:2|)) ?x8473)))
 (let (($x4639 (or (<= (+ (+ ?x1975 ?x7062) ?x2880) ?x2563) (<= (+ (+ ?x1281 (* ?x9102 |v13:4|)) ?x9439) ?x2563))))
 (let ((?x6544 (* 2.0 |v13:4|)))
 (let ((?x6409 (+ (+ (+ (+ (* 5.0 ?x6401) (* ?x3081 ?x2014)) ?x7845) (* 5.0 ?x7054)) ?x6544)))
 (let ((?x5989 (* ?x6828 |v4:13|)))
 (let ((?x3049 (* ?x3081 ?x6401)))
 (let ((?x7595 (+ (+ (+ (+ (* ?x6015 ?x7112) (* ?x4934 ?x2014)) ?x6544) (* ?x4934 ?x7845)) ?x3049)))
 (let (($x8161 (or (<= (+ (+ ?x7595 (* ?x8076 |v15:2|)) ?x5989) 8.0) (<= (+ (+ ?x6409 ?x1560) ?x8764) ?x8846))))
 (let ((?x1136 (* 20.0 ?x6528)))
 (let ((?x7074 (* 17.0 |v2:15|)))
 (let ((?x4196 (+ (+ (+ (* ?x7369 |v2:15|) (* ?x6828 ?x2014)) (* ?x8130 ?x6528)) (* ?x9102 |v14:3|))))
 (let ((?x8740 (* 5.0 |v5:12|)))
 (let ((?x3578 (* 5.0 ?x2014)))
 (let ((?x9443 (+ (+ (+ (+ (* 5.0 ?x7845) ?x5487) (* ?x2563 |v3:14|)) ?x2035) (* ?x7172 ?x7112))))
 (let (($x4149 (or (<= (+ (+ ?x9443 ?x3578) ?x8740) ?x3398) (<= (+ (+ (+ ?x4196 ?x7074) ?x1136) ?x3668) ?x2364))))
 (let ((?x1847 (* 9.0 ?x7112)))
 (let ((?x4730 (* 14.0 |v5:12|)))
 (let ((?x85 (* 9.0 |v17:0|)))
 (let ((?x115 (+ (+ (+ (+ (+ (* 2.0 ?x7054) |v0:17|) ?x5583) (* 17.0 |v13:4|)) ?x85) ?x4730)))
 (let ((?x366 (* 19.0 |v2:15|)))
 (let ((?x8494 (* ?x6152 ?x7112)))
 (let ((?x442 (+ (+ (+ (+ (* 3.0 |v12:5|) (* 19.0 |v12:5|)) ?x5282) (* ?x856 |v2:15|)) ?x4001)))
 (let (($x7195 (or (and (<= (+ (+ ?x442 ?x8494) ?x366) 20.0) (<= (+ ?x115 ?x1847) ?x9102)) $x4149)))
 (let ((?x8963 (* ?x6828 |v2:15|)))
 (let ((?x2775 (+ (+ (+ (+ (* 17.0 |v13:4|) (* ?x3081 |v17:0|)) (* 12.0 |v13:4|)) ?x1094) ?x8963)))
 (let ((?x1522 (* 3.0 |v4:13|)))
 (let ((?x1870 (* 16.0 |v13:4|)))
 (let ((?x1160 (* ?x856 |v4:13|)))
 (let ((?x3549 (* ?x856 |v0:17|)))
 (let ((?x977 (+ (+ (+ (+ (* ?x3081 ?x2014) (* ?x3398 |v15:2|)) (* ?x2364 |v3:14|)) ?x3549) ?x1160)))
 (let (($x1986 (and (<= (+ (+ ?x977 ?x1870) ?x1522) 10.0) (<= (+ (+ ?x2775 (* ?x7108 ?x6401)) ?x2892) 11.0))))
 (let ((?x4286 (+ (+ (+ (+ ?x1112 (* 10.0 |v14:3|)) (* ?x7172 |v4:13|)) (* 4.0 |v12:5|)) (* 11.0 ?x7112))))
 (let ((?x2667 (* ?x3398 |v3:14|)))
 (let ((?x8629 (* ?x2367 |v2:15|)))
 (let ((?x9410 (+ (+ (+ (+ ?x6040 (* 9.0 |v14:3|)) (* ?x5750 |v3:14|)) (* ?x2579 |v16:1|)) ?x8629)))
 (let (($x9377 (or (<= (+ (+ ?x9410 (* ?x7108 |v13:4|)) ?x2667) ?x9102) (<= (+ (+ ?x4286 ?x8910) ?x5759) 5.0))))
 (let ((?x6616 (* 3.0 |v12:5|)))
 (let ((?x6838 (+ (+ (+ (+ ?x3911 (* ?x6828 |v1:16|)) (* ?x3081 |v0:17|)) (* 8.0 |v12:5|)) ?x6616)))
 (let ((?x8929 (* 3.0 |v3:14|)))
 (let ((?x5669 (* 10.0 |v2:15|)))
 (let ((?x2377 (+ (+ (+ (+ ?x3549 (* ?x6015 |v17:0|)) (* ?x5750 |v15:2|)) (* 19.0 ?x6528)) ?x5669)))
 (let (($x7863 (or (<= (+ (+ ?x2377 ?x2253) ?x8929) ?x7172) (<= (+ (+ ?x6838 ?x6392) (* ?x6152 ?x7054)) ?x3398))))
 (let ((?x1354 (* 19.0 |v14:3|)))
 (let ((?x7257 (* 4.0 |v15:2|)))
 (let ((?x7334 (+ (+ (+ (+ (* 20.0 |v0:17|) (* 6.0 ?x6528)) (* 19.0 |v0:17|)) ?x7257) (* 5.0 |v15:2|))))
 (let ((?x1253 (* 2.0 |v0:17|)))
 (let ((?x1992 (* 16.0 |v2:15|)))
 (let ((?x5161 (* ?x7369 ?x6528)))
 (let ((?x7608 (+ (+ (+ (+ (* 18.0 |v13:4|) (* 7.0 |v13:4|)) (* 15.0 ?x6528)) ?x6693) ?x5161)))
 (let (($x8306 (or (<= (+ (+ ?x7608 ?x1992) ?x1253) ?x6152) (<= (+ (+ ?x7334 ?x1354) ?x2892) 16.0))))
 (let (($x8729 (and (and (or (and $x8306 $x7863) (or $x9377 $x1986)) (or $x7195 (or $x8161 $x4639))) (or (or $x4325 $x9234) (and (or $x3901 $x6219) (or $x7364 $x7147))))))
 (let ((?x252 (* ?x6828 ?x6528)))
 (let ((?x5606 (+ (+ (+ (+ (* 4.0 ?x7054) (* ?x6152 ?x6528)) (* ?x7108 ?x7112)) ?x252) (* 0.0 ?x6401))))
 (let ((?x3401 (* 18.0 ?x2014)))
 (let ((?x4215 (* ?x5750 |v15:2|)))
 (let ((?x6071 (+ (+ (+ (+ (* ?x2579 |v15:2|) (* 5.0 |v1:16|)) (* 5.0 |v0:17|)) ?x4215) ?x5772)))
 (let ((?x3347 (* 0.0 |v17:0|)))
 (let ((?x2036 (+ (+ (+ (+ (* 15.0 ?x7845) (* 13.0 |v3:14|)) (* 15.0 ?x2014)) ?x3347) ?x9147)))
 (let (($x4099 (and (<= (+ (+ ?x2036 ?x1136) ?x6755) ?x6937) (<= (+ (+ ?x6071 ?x3401) ?x7216) 14.0))))
 (let ((?x5861 (* 15.0 |v5:12|)))
 (let ((?x8438 (* ?x4934 |v2:15|)))
 (let ((?x1762 (* 5.0 |v12:5|)))
 (let ((?x8241 (* ?x3081 |v12:5|)))
 (let ((?x1110 (+ (+ (+ (+ (* ?x8076 |v5:12|) (* ?x7172 |v4:13|)) (* 12.0 |v15:2|)) ?x8241) ?x1762)))
 (let ((?x2690 (* 10.0 |v16:1|)))
 (let ((?x6046 (* ?x6937 |v17:0|)))
 (let ((?x89 (+ (+ (+ (+ (* ?x8130 |v4:13|) (* ?x6015 ?x7112)) (* 3.0 |v17:0|)) ?x6046) ?x2690)))
 (let (($x8325 (or (<= (+ (+ ?x89 (* ?x8076 |v16:1|)) ?x6196) ?x6015) (<= (+ (+ ?x1110 ?x8438) ?x5861) 2.0))))
 (let ((?x4143 (* ?x8130 |v0:17|)))
 (let ((?x5357 (* ?x8076 |v5:12|)))
 (let ((?x4452 (* ?x2579 |v1:16|)))
 (let ((?x7725 (+ (+ (+ (+ (* ?x6937 ?x6401) ?x8304) (* 5.0 |v0:17|)) (* ?x2579 |v16:1|)) ?x4452)))
 (let ((?x3710 (* 15.0 ?x7845)))
 (let ((?x7731 (+ (+ (+ (+ (* ?x9102 |v17:0|) (* 9.0 ?x6528)) ?x3049) (* 16.0 |v5:12|)) |v1:16|)))
 (let (($x688 (or (<= (+ (+ ?x7731 ?x3710) |v16:1|) 16.0) (<= (+ (+ ?x7725 ?x5357) ?x4143) ?x4934))))
 (let ((?x3220 (* 3.0 |v5:12|)))
 (let ((?x7508 (* 16.0 |v4:13|)))
 (let ((?x2115 (* ?x4934 |v17:0|)))
 (let ((?x5987 (+ (+ (+ (* ?x2367 |v5:12|) (* ?x4934 ?x7845)) (* ?x2367 |v5:12|)) (* ?x8130 |v16:1|))))
 (let ((?x2742 (+ (+ (+ (+ ?x3401 (* 9.0 |v13:4|)) ?x936) (* ?x7172 |v1:16|)) (* ?x6015 ?x6401))))
 (let (($x831 (and (<= (+ (+ ?x2742 ?x2288) ?x4378) ?x2563) (<= (+ (+ (+ ?x5987 ?x2115) ?x7508) ?x3220) 20.0))))
 (let ((?x3546 (* ?x2579 |v12:5|)))
 (let ((?x4664 (* 16.0 |v17:0|)))
 (let ((?x1379 (* 14.0 |v2:15|)))
 (let ((?x5208 (+ (+ (+ (+ ?x7054 (* 8.0 |v4:13|)) (* 20.0 |v3:14|)) (* ?x6828 |v0:17|)) ?x1379)))
 (let ((?x3556 (* 18.0 ?x6401)))
 (let ((?x2536 (* ?x8130 |v2:15|)))
 (let ((?x6748 (+ (+ (+ (+ |v3:14| (* 11.0 ?x6401)) ?x2478) (* ?x856 |v14:3|)) (* ?x9102 ?x7054))))
 (let (($x5534 (or (<= (+ (+ ?x6748 ?x2536) ?x3556) ?x8130) (<= (+ (+ ?x5208 ?x4664) ?x3546) ?x7172))))
 (let ((?x1935 (+ (+ (+ (+ (+ (+ |v13:4| ?x252) (* ?x7172 ?x7054)) ?x1200) ?x3911) ?x5853) ?x252)))
 (let ((?x4541 (* 18.0 |v3:14|)))
 (let ((?x9445 (* ?x6828 ?x2014)))
 (let ((?x4261 (* 3.0 |v2:15|)))
 (let ((?x4173 (+ (+ (+ (+ (+ (* ?x7369 ?x6401) ?x7979) ?x7550) (* ?x7172 |v5:12|)) ?x4261) ?x9445)))
 (let (($x6175 (or (or (and (<= (+ ?x4173 ?x4541) ?x7172) (<= ?x1935 ?x9102)) $x5534) (and $x831 $x688))))
 (let ((?x4302 (* 15.0 |v3:14|)))
 (let ((?x845 (* 0.0 |v12:5|)))
 (let ((?x9106 (+ (+ (+ (+ (* 7.0 |v12:5|) ?x6046) (* ?x2367 ?x7112)) (* 14.0 ?x7112)) ?x845)))
 (let ((?x5018 (* 7.0 |v1:16|)))
 (let ((?x1569 (* ?x8130 ?x6528)))
 (let ((?x178 (+ (+ (+ (+ (+ (+ ?x1569 ?x2288) (* 12.0 |v16:1|)) ?x1253) ?x1569) ?x5018) ?x8473)))
 (let ((?x2142 (+ (+ (+ (+ (+ ?x6801 ?x8241) (* ?x6828 |v14:3|)) (* ?x2563 |v2:15|)) ?x800) ?x7257)))
 (let ((?x4300 (* 20.0 |v14:3|)))
 (let ((?x6261 (+ (+ (+ (+ (+ (+ (* 17.0 ?x7054) |v15:2|) ?x1770) ?x5427) ?x4664) ?x4300) ?x9108)))
 (let (($x566 (and (or (<= ?x6261 ?x6937) (or (<= (+ ?x2142 ?x7062) ?x5750) (<= ?x178 0.0))) (<= (+ (+ ?x9106 (* ?x3398 |v12:5|)) ?x4302) ?x5750))))
 (let ((?x6868 (* ?x7172 |v15:2|)))
 (let ((?x8858 (* 7.0 |v15:2|)))
 (let ((?x7208 (+ (+ (+ (+ (* ?x6937 ?x7112) ?x1094) (* 10.0 ?x7054)) (* 20.0 ?x6401)) ?x8858)))
 (let ((?x2496 (* 13.0 |v0:17|)))
 (let ((?x8532 (* 4.0 |v3:14|)))
 (let ((?x1664 (+ (+ (+ (+ (+ (* 11.0 |v2:15|) ?x9421) ?x2124) ?x5578) (* ?x6828 |v1:16|)) ?x8532)))
 (let ((?x5294 (* ?x6015 |v14:3|)))
 (let ((?x4772 (* ?x7108 |v12:5|)))
 (let ((?x4674 (+ (+ (+ (+ ?x4627 (* 19.0 |v12:5|)) (* 16.0 ?x7845)) (* ?x2364 |v16:1|)) ?x7342)))
 (let ((?x2806 (* ?x7108 |v16:1|)))
 (let ((?x4570 (* 20.0 |v13:4|)))
 (let ((?x5619 (+ (+ (+ (+ (* ?x6152 |v2:15|) (* ?x3398 ?x6401)) ?x6401) (* 11.0 |v5:12|)) ?x4570)))
 (let (($x1102 (or (<= (+ (+ ?x5619 (* ?x6937 ?x6528)) ?x2806) ?x5750) (<= (+ (+ ?x4674 ?x4772) ?x5294) ?x3398))))
 (let (($x7421 (or $x1102 (and (<= (+ ?x1664 ?x2496) 14.0) (<= (+ (+ ?x7208 ?x9439) ?x6868) ?x6015)))))
 (let ((?x1210 (* ?x856 |v12:5|)))
 (let ((?x7213 (+ (+ (+ (+ ?x9342 ?x990) (* ?x856 |v1:16|)) (* ?x856 |v13:4|)) (* ?x2563 |v13:4|))))
 (let ((?x20 (* ?x6937 |v5:12|)))
 (let ((?x8286 (+ (+ (+ (+ (* ?x5750 |v1:16|) (* 11.0 |v1:16|)) ?x8532) (* 6.0 ?x6401)) ?x845)))
 (let (($x2401 (and (<= (+ (+ ?x8286 ?x20) (* ?x2367 |v17:0|)) 19.0) (<= (+ (+ ?x7213 ?x3668) ?x1210) ?x3398))))
 (let ((?x4110 (* ?x9102 |v15:2|)))
 (let ((?x2734 (* 13.0 |v4:13|)))
 (let ((?x5956 (* ?x8846 |v3:14|)))
 (let ((?x501 (+ (+ (+ (+ (+ (* 20.0 ?x7054) (* ?x2579 |v16:1|)) ?x9413) ?x8764) ?x5956) ?x2734)))
 (let (($x3244 (and (or (or (and (<= (+ ?x501 ?x4110) ?x2367) $x2401) $x7421) $x566) (and $x6175 (and (or $x8325 $x4099) (<= (+ (+ ?x5606 ?x4354) ?x3943) 18.0))))))
 (let ((?x4735 (+ (+ (+ (+ (+ ?x3911 (* ?x7108 ?x6528)) ?x6868) ?x4627) (* ?x3398 ?x6401)) |v1:16|)))
 (let ((?x8470 (* 5.0 ?x7845)))
 (let ((?x3052 (* 4.0 |v2:15|)))
 (let ((?x3189 (+ (+ (+ (+ (* 4.0 ?x7054) (* ?x5750 |v4:13|)) (* 19.0 |v12:5|)) ?x2115) ?x3052)))
 (let ((?x8883 (* 4.0 |v12:5|)))
 (let ((?x3724 (+ (+ (+ (+ (+ (+ ?x2892 ?x8390) ?x4302) ?x3276) ?x4013) (* 13.0 |v15:2|)) ?x8883)))
 (let ((?x4616 (* 3.0 ?x7845)))
 (let ((?x646 (+ (+ (+ (* 7.0 |v4:13|) (* ?x4934 ?x6528)) (* 14.0 ?x6528)) (* ?x9102 ?x7845))))
 (let ((?x907 (+ (+ (+ (+ (* 6.0 ?x2014) (* 0.0 |v3:14|)) ?x3657) (* 3.0 |v0:17|)) ?x1992)))
 (let (($x4775 (and (<= (+ (+ ?x907 ?x61) ?x2892) ?x856) (<= (+ (+ (+ ?x646 ?x1786) ?x4616) ?x8473) ?x5750))))
 (let (($x4583 (and (and $x4775 (and (<= ?x3724 ?x9102) (<= (+ (+ ?x3189 ?x5487) ?x8470) 4.0))) (<= (+ ?x4735 ?x7422) 1.0))))
 (let ((?x2564 (* 20.0 |v1:16|)))
 (let ((?x6741 (+ (+ (+ (+ (+ ?x5357 (* 5.0 ?x7054)) ?x506) (* ?x6937 |v12:5|)) ?x1136) (* ?x7172 ?x6401))))
 (let ((?x7048 (* 0.0 |v1:16|)))
 (let ((?x2956 (* ?x2367 ?x7112)))
 (let ((?x4970 (+ (+ (+ (+ (+ ?x2564 ?x2734) ?x4354) (* ?x9102 |v12:5|)) (* ?x8130 ?x7845)) ?x2956)))
 (let ((?x467 (* 11.0 |v13:4|)))
 (let ((?x1419 (* 8.0 |v15:2|)))
 (let ((?x2840 (+ (+ (+ (+ (+ (* 7.0 ?x6401) ?x7062) ?x8764) (* 8.0 |v4:13|)) ?x1419) ?x4772)))
 (let ((?x6074 (* 11.0 |v12:5|)))
 (let ((?x6205 (+ (+ (+ (+ (+ (* ?x4934 ?x7845) ?x7054) (* ?x5750 ?x7845)) ?x4378) ?x6074) ?x1619)))
 (let (($x8088 (and (or (<= (+ ?x6205 ?x2806) 15.0) (<= (+ ?x2840 ?x467) 15.0)) (or (<= (+ ?x4970 ?x7048) 7.0) (<= (+ ?x6741 ?x2564) ?x2364)))))
 (let ((?x2395 (* 13.0 |v1:16|)))
 (let ((?x5406 (* ?x2367 |v0:17|)))
 (let ((?x2833 (+ (+ (+ (+ (+ (* ?x856 |v16:1|) (* 9.0 |v13:4|)) ?x4144) ?x9342) ?x5406) ?x2395)))
 (let ((?x8205 (* 14.0 |v12:5|)))
 (let ((?x4738 (* 13.0 ?x7054)))
 (let ((?x1688 (+ (+ (+ (+ (+ (+ (* 20.0 |v17:0|) ?x4242) ?x7508) ?x8672) ?x9439) ?x4738) ?x8205)))
 (let ((?x2167 (* ?x4934 ?x7845)))
 (let ((?x8977 (* 10.0 ?x7054)))
 (let ((?x9152 (+ (+ (+ (+ (* ?x6015 |v1:16|) (* 7.0 ?x7112)) (* ?x3081 |v16:1|)) ?x8977) ?x2167)))
 (let ((?x8832 (+ (+ (+ (+ (* ?x2364 ?x2014) ?x1648) (* 17.0 ?x6528)) (* ?x8846 ?x7845)) (* ?x2579 ?x7054))))
 (let (($x891 (or (<= (+ (+ ?x8832 ?x5018) ?x5861) 4.0) (<= (+ (+ ?x9152 ?x9421) (* 14.0 ?x7054)) ?x2579))))
 (let ((?x177 (* 20.0 |v2:15|)))
 (let ((?x4858 (+ (+ (+ (+ (+ ?x8740 (* ?x2563 |v1:16|)) ?x1560) ?x5415) (* ?x7369 |v14:3|)) ?x3052)))
 (let ((?x4572 (* 19.0 ?x6401)))
 (let ((?x7670 (+ (+ (+ (+ (* ?x7369 ?x6401) (* 16.0 |v1:16|)) ?x4452) ?x2124) (* 14.0 ?x6401))))
 (let ((?x8554 (* 14.0 ?x6528)))
 (let ((?x1168 (+ (+ (+ (+ (+ (+ ?x1786 ?x2496) ?x4302) ?x5583) ?x4322) (* 20.0 |v3:14|)) ?x8554)))
 (let ((?x5905 (* ?x8076 |v1:16|)))
 (let ((?x7318 (* 3.0 |v15:2|)))
 (let ((?x3487 (* ?x4934 |v15:2|)))
 (let ((?x529 (+ (+ (+ (+ (+ (* ?x7369 |v3:14|) ?x2729) ?x8532) (* ?x6828 |v16:1|)) ?x3487) ?x7318)))
 (let (($x4287 (or (<= (+ ?x529 ?x5905) 18.0) (and (<= ?x1168 ?x6828) (<= (+ (+ ?x7670 ?x2357) ?x4572) ?x2367)))))
 (let ((?x4947 (* 11.0 |v2:15|)))
 (let ((?x7507 (* ?x5750 |v4:13|)))
 (let ((?x4336 (+ (+ (+ (+ (+ ?x8764 (* ?x2563 ?x2014)) ?x1419) (* 20.0 |v16:1|)) ?x7507) ?x3911)))
 (let (($x1687 (or (and (<= (+ ?x4336 ?x4947) ?x5750) $x4287) (and (<= (+ ?x4858 ?x177) 0.0) (or $x891 (<= ?x1688 4.0))))))
 (let (($x4464 (or (and $x1687 (or (and (<= (+ ?x2833 (* ?x6937 |v13:4|)) ?x6015) $x8088) $x4583)) $x3244)))
 (let (($x4184 (not (= |v6:11_st| (RMk1 val!9905)))))
 (let (($x3947 (not (= |v7:10_st| (RMk1 val!9904)))))
 (let (($x3746 (not (= |v8:9_st| (RMk1 val!9903)))))
 (let (($x3505 (not (= |v9:8_st| (RMk1 val!9902)))))
 (let (($x1202 (not (= |v10:7_st| (RMk1 val!9901)))))
 (let (($x2351 (not (= |v11:6_st| (RMk1 val!9900)))))
 (and $x2351 $x1202 $x3505 $x3746 $x3947 $x4184 (or $x4464 (and $x8729 $x4644))))))))))))))))))))))))))))))))))))))))))))))))))))))))))))))))))))))))))))))))))))))))))))))))))))))))))))))))))))))))))))))))))))))))))))))))))))))))))))))))))))))))))))))))))))))))))))))))))))))))))))))))))))))))))))))))))))))))))))))))))))))))))))))))))))))))))))))))))))))))))))))))))))))))))))))))))))))))))))))))))))))))))))))))))))))))))))))))))))))))))))))))))))))))))))))))))))))))))))))))))))))))))))))
 )
 )
 )
 )
 )
 )
 )
 )
 )
 )
 )
 )
 )
 )
 )
 )
 )
 )
(check-sat)
